p cnf 37 136
1 -2 0
-3 -4 1 0
3 2 -1 0
4 2 -1 0
5 -6 0
5 -7 0
5 -8 0
5 -9 0
5 -10 0
5 -11 0
5 -12 0
5 -13 0
5 -14 0
5 -15 0
5 -16 0
5 -17 0
5 -18 0
5 -19 0
5 -20 0
5 -21 0
5 -22 0
5 -23 0
5 -24 0
5 -25 0
5 -26 0
5 -27 0
5 -28 0
5 -29 0
5 -30 0
5 -31 0
5 -32 0
-33 -1 5 0
33 6 7 8 9 10 11 12 13 14 15 16 17 18 19 20 21 22 23 24 25 26 27 28 29 30 31 32 -5 0
6 7 8 9 10 11 12 13 14 15 16 17 18 19 20 21 22 23 24 25 26 27 28 29 30 31 32 1 -5 0
-2 34 0
-6 34 0
-7 34 0
-8 34 0
-9 34 0
-10 34 0
-11 34 0
-12 34 0
-13 34 0
-14 34 0
-15 34 0
-16 34 0
-17 34 0
-18 34 0
-19 34 0
-20 34 0
-21 34 0
-22 34 0
-23 34 0
-24 34 0
-25 34 0
-26 34 0
-27 34 0
-28 34 0
-29 34 0
-30 34 0
-31 34 0
-32 34 0
34 -35 0
3 34 0
4 34 0
33 34 0
35 -5 34 0
2 6 7 8 9 10 11 12 13 14 15 16 17 18 19 20 21 22 23 24 25 26 27 28 29 30 31 32 35 -3 -4 -33 5 -34 0
-6 36 0
-7 36 0
-8 36 0
-9 36 0
-10 36 0
-11 36 0
-12 36 0
-13 36 0
-14 36 0
-15 36 0
-16 36 0
-17 36 0
-18 36 0
-19 36 0
-20 36 0
-21 36 0
-22 36 0
-23 36 0
-24 36 0
-25 36 0
-26 36 0
-27 36 0
-28 36 0
-29 36 0
-30 36 0
-31 36 0
-32 36 0
-33 -1 36 0
33 6 7 8 9 10 11 12 13 14 15 16 17 18 19 20 21 22 23 24 25 26 27 28 29 30 31 32 -36 0
6 7 8 9 10 11 12 13 14 15 16 17 18 19 20 21 22 23 24 25 26 27 28 29 30 31 32 1 -36 0
-35 -34 0
36 -34 0
-3 37 0
-2 37 0
-6 37 0
-7 37 0
-8 37 0
-9 37 0
-10 37 0
-11 37 0
-12 37 0
-13 37 0
-14 37 0
-15 37 0
-16 37 0
-17 37 0
-18 37 0
-19 37 0
-20 37 0
-21 37 0
-22 37 0
-23 37 0
-24 37 0
-25 37 0
-26 37 0
-27 37 0
-28 37 0
-29 37 0
-30 37 0
-31 37 0
-32 37 0
-35 37 0
4 37 0
33 37 0
35 -36 37 0
3 2 6 7 8 9 10 11 12 13 14 15 16 17 18 19 20 21 22 23 24 25 26 27 28 29 30 31 32 35 -4 -33 36 -37 0
-35 -37 0
36 -37 0
c 3 k!0
c 4 k!1
c 2 k!2
c 33 k!3
c 6 k!4
c 7 k!5
c 8 k!6
c 9 k!7
c 10 k!8
c 11 k!9
c 12 k!10
c 13 k!11
c 14 k!12
c 15 k!13
c 16 k!14
c 17 k!15
c 18 k!16
c 19 k!17
c 20 k!18
c 21 k!19
c 22 k!20
c 23 k!21
c 24 k!22
c 25 k!23
c 26 k!24
c 27 k!25
c 28 k!26
c 29 k!27
c 30 k!28
c 31 k!29
c 32 k!30
c 35 k!31
c 1 k!32
c 5 k!33
c 34 k!34
c 36 k!35
c 37 k!36